benchmarks_CP/INST_64x64/50/inst64x64_50_80.dzn
S=8;
start=[|
34,	-1,	28,	-1,	11,	-1,	-1,	-1,	-1,	39,	33,	-1,	42,	51,	-1,	-1,	-1,	8,	-1,	-1,	38,	32,	35,	-1,	59,	9,	-1,	13,	54,	55,	-1,	36,	-1,	-1,	-1,	24,	-1,	-1,	-1,	-1,	19,	47,	-1,	63,	50,	-1,	22,	31,	49,	-1,	-1,	12,	6,	10,	56,	7,	30,	4,	37,	61,	17,	-1,	14,	26|
-1,	-1,	-1,	26,	22,	-1,	9,	43,	-1,	38,	14,	11,	-1,	-1,	-1,	-1,	5,	48,	62,	-1,	41,	64,	-1,	56,	-1,	-1,	60,	-1,	23,	33,	42,	-1,	-1,	47,	-1,	-1,	39,	-1,	8,	-1,	52,	-1,	-1,	-1,	-1,	13,	-1,	57,	-1,	-1,	-1,	1,	20,	51,	-1,	-1,	19,	24,	-1,	-1,	-1,	-1,	55,	-1|
-1,	44,	63,	-1,	-1,	-1,	-1,	13,	-1,	-1,	60,	-1,	10,	41,	-1,	1,	-1,	55,	-1,	-1,	-1,	12,	-1,	-1,	-1,	-1,	-1,	43,	-1,	-1,	-1,	7,	-1,	56,	22,	49,	-1,	25,	-1,	-1,	-1,	-1,	30,	4,	20,	-1,	-1,	58,	47,	-1,	61,	-1,	-1,	15,	19,	-1,	-1,	-1,	31,	-1,	-1,	3,	-1,	5|
20,	1,	41,	31,	-1,	56,	-1,	24,	-1,	-1,	-1,	16,	64,	-1,	18,	-1,	59,	-1,	54,	-1,	-1,	4,	-1,	49,	32,	28,	14,	-1,	47,	-1,	62,	39,	-1,	17,	12,	40,	-1,	-1,	42,	-1,	53,	23,	-1,	-1,	-1,	43,	-1,	60,	52,	-1,	9,	-1,	8,	-1,	55,	-1,	-1,	51,	-1,	-1,	-1,	44,	29,	-1|
48,	-1,	-1,	-1,	6,	55,	-1,	-1,	-1,	-1,	40,	-1,	-1,	22,	47,	30,	-1,	-1,	-1,	-1,	-1,	1,	-1,	-1,	51,	3,	49,	-1,	31,	52,	11,	56,	-1,	19,	-1,	-1,	-1,	-1,	38,	2,	-1,	-1,	-1,	27,	32,	21,	-1,	12,	26,	-1,	-1,	63,	18,	-1,	-1,	-1,	20,	-1,	34,	45,	-1,	43,	-1,	58|
-1,	19,	-1,	-1,	-1,	-1,	27,	39,	-1,	31,	-1,	-1,	24,	-1,	32,	-1,	10,	-1,	-1,	20,	-1,	-1,	37,	47,	63,	16,	-1,	17,	18,	-1,	-1,	-1,	4,	34,	-1,	9,	43,	50,	-1,	-1,	8,	-1,	-1,	38,	-1,	26,	-1,	15,	-1,	-1,	13,	46,	36,	33,	57,	11,	-1,	28,	-1,	12,	64,	-1,	-1,	-1|
3,	-1,	47,	-1,	-1,	32,	62,	-1,	-1,	17,	8,	4,	-1,	49,	-1,	-1,	7,	-1,	29,	60,	-1,	22,	-1,	18,	-1,	15,	64,	-1,	1,	38,	30,	26,	20,	6,	-1,	-1,	-1,	-1,	-1,	-1,	-1,	-1,	-1,	33,	-1,	-1,	34,	-1,	16,	43,	-1,	2,	23,	-1,	-1,	-1,	-1,	50,	41,	27,	25,	-1,	9,	11|
49,	-1,	42,	7,	4,	59,	54,	8,	-1,	57,	55,	15,	-1,	-1,	6,	-1,	51,	-1,	-1,	-1,	-1,	-1,	-1,	-1,	-1,	-1,	-1,	5,	58,	-1,	-1,	-1,	-1,	-1,	-1,	-1,	-1,	23,	-1,	-1,	1,	-1,	-1,	-1,	9,	29,	-1,	-1,	60,	-1,	-1,	24,	27,	64,	-1,	-1,	-1,	32,	63,	-1,	-1,	16,	22,	47|
-1,	37,	-1,	-1,	49,	-1,	19,	22,	-1,	8,	51,	2,	9,	5,	-1,	4,	6,	47,	-1,	-1,	-1,	36,	31,	41,	-1,	54,	34,	-1,	25,	-1,	-1,	30,	48,	42,	-1,	7,	55,	-1,	-1,	-1,	-1,	-1,	38,	1,	63,	-1,	-1,	21,	-1,	-1,	50,	57,	-1,	-1,	23,	32,	-1,	-1,	-1,	28,	33,	-1,	-1,	-1|
4,	36,	3,	5,	13,	7,	-1,	17,	-1,	-1,	-1,	26,	52,	44,	14,	63,	18,	-1,	-1,	61,	-1,	56,	-1,	-1,	-1,	59,	-1,	47,	29,	11,	37,	-1,	-1,	-1,	53,	57,	64,	51,	-1,	-1,	-1,	40,	34,	-1,	-1,	58,	39,	-1,	27,	-1,	55,	-1,	-1,	-1,	-1,	20,	25,	30,	2,	-1,	19,	50,	-1,	10|
1,	11,	14,	55,	-1,	51,	-1,	-1,	31,	-1,	17,	-1,	-1,	25,	19,	6,	30,	49,	35,	-1,	-1,	29,	-1,	-1,	57,	38,	40,	-1,	-1,	-1,	2,	-1,	-1,	45,	58,	-1,	-1,	37,	-1,	9,	-1,	-1,	-1,	-1,	-1,	-1,	50,	-1,	21,	3,	44,	54,	47,	-1,	-1,	60,	-1,	59,	-1,	-1,	-1,	41,	23,	62|
42,	-1,	26,	50,	-1,	31,	33,	-1,	58,	60,	-1,	-1,	62,	-1,	34,	11,	-1,	-1,	9,	19,	-1,	10,	-1,	38,	6,	13,	-1,	-1,	55,	-1,	-1,	49,	21,	-1,	-1,	12,	-1,	-1,	61,	40,	-1,	57,	-1,	-1,	-1,	27,	-1,	44,	5,	22,	-1,	15,	41,	30,	-1,	-1,	-1,	-1,	17,	35,	-1,	-1,	-1,	-1|
57,	-1,	24,	53,	64,	47,	8,	-1,	12,	-1,	-1,	-1,	39,	-1,	40,	-1,	37,	-1,	23,	-1,	-1,	48,	-1,	-1,	-1,	44,	43,	35,	-1,	-1,	-1,	-1,	54,	-1,	-1,	-1,	-1,	-1,	26,	-1,	-1,	-1,	-1,	-1,	-1,	-1,	-1,	14,	-1,	-1,	4,	-1,	-1,	-1,	-1,	34,	42,	-1,	-1,	-1,	-1,	-1,	21,	13|
60,	-1,	38,	-1,	-1,	-1,	-1,	-1,	-1,	36,	64,	-1,	-1,	-1,	61,	22,	26,	-1,	51,	57,	-1,	-1,	-1,	-1,	58,	-1,	5,	41,	19,	20,	33,	31,	-1,	16,	-1,	-1,	-1,	32,	50,	52,	-1,	55,	56,	30,	-1,	-1,	-1,	-1,	2,	-1,	-1,	40,	37,	-1,	-1,	14,	47,	-1,	15,	8,	27,	12,	18,	-1|
40,	-1,	34,	-1,	28,	25,	6,	41,	20,	-1,	-1,	-1,	30,	-1,	-1,	3,	-1,	-1,	2,	-1,	-1,	-1,	-1,	-1,	-1,	-1,	-1,	50,	64,	-1,	-1,	61,	14,	-1,	-1,	5,	11,	-1,	-1,	-1,	-1,	26,	22,	54,	35,	-1,	-1,	-1,	-1,	18,	-1,	-1,	33,	9,	42,	39,	-1,	-1,	-1,	-1,	-1,	55,	-1,	44|
32,	61,	9,	58,	12,	-1,	-1,	59,	33,	50,	54,	-1,	53,	-1,	38,	-1,	40,	-1,	14,	5,	-1,	-1,	55,	-1,	46,	42,	-1,	-1,	62,	21,	4,	-1,	-1,	-1,	-1,	41,	-1,	-1,	-1,	-1,	-1,	2,	43,	48,	19,	60,	18,	45,	1,	8,	56,	-1,	63,	-1,	-1,	13,	29,	-1,	-1,	-1,	34,	-1,	37,	39|
22,	-1,	-1,	-1,	47,	63,	45,	62,	-1,	-1,	-1,	-1,	-1,	36,	49,	41,	56,	54,	-1,	-1,	32,	16,	51,	30,	50,	-1,	19,	-1,	21,	-1,	-1,	11,	-1,	28,	-1,	-1,	-1,	24,	23,	-1,	61,	1,	-1,	-1,	-1,	57,	-1,	-1,	-1,	-1,	-1,	38,	-1,	3,	-1,	18,	9,	-1,	-1,	37,	-1,	-1,	59,	-1|
41,	55,	56,	-1,	1,	61,	-1,	26,	-1,	15,	28,	-1,	48,	45,	-1,	-1,	11,	-1,	-1,	23,	-1,	-1,	-1,	7,	-1,	43,	16,	58,	-1,	-1,	-1,	44,	-1,	46,	50,	13,	-1,	36,	-1,	8,	34,	-1,	-1,	2,	24,	19,	27,	-1,	37,	-1,	29,	9,	-1,	-1,	-1,	12,	10,	-1,	-1,	20,	-1,	21,	3,	-1|
-1,	40,	31,	28,	-1,	48,	37,	3,	-1,	-1,	-1,	21,	2,	8,	26,	-1,	-1,	-1,	60,	10,	-1,	-1,	19,	6,	-1,	-1,	-1,	46,	-1,	-1,	38,	-1,	5,	-1,	-1,	32,	-1,	45,	54,	49,	-1,	56,	-1,	17,	-1,	42,	16,	39,	-1,	41,	-1,	33,	-1,	4,	20,	-1,	-1,	64,	-1,	55,	61,	15,	-1,	1|
-1,	32,	-1,	-1,	20,	64,	49,	-1,	-1,	-1,	-1,	-1,	-1,	-1,	22,	59,	-1,	57,	47,	63,	37,	-1,	2,	-1,	-1,	-1,	-1,	-1,	12,	40,	-1,	29,	30,	31,	-1,	26,	19,	4,	9,	-1,	50,	46,	-1,	35,	-1,	10,	-1,	-1,	45,	60,	-1,	56,	11,	1,	-1,	-1,	-1,	-1,	52,	-1,	-1,	24,	-1,	8|
39,	-1,	-1,	24,	-1,	-1,	43,	-1,	17,	-1,	32,	42,	20,	11,	1,	-1,	-1,	50,	-1,	28,	40,	-1,	61,	-1,	55,	-1,	-1,	-1,	9,	-1,	45,	-1,	-1,	2,	-1,	-1,	-1,	-1,	-1,	41,	3,	-1,	37,	44,	-1,	49,	21,	-1,	58,	6,	63,	-1,	-1,	-1,	-1,	26,	53,	25,	46,	54,	-1,	-1,	36,	29|
-1,	8,	-1,	-1,	-1,	-1,	-1,	25,	57,	-1,	13,	38,	60,	-1,	3,	39,	-1,	44,	17,	-1,	-1,	-1,	59,	-1,	-1,	-1,	26,	31,	52,	-1,	-1,	-1,	61,	-1,	-1,	37,	-1,	34,	10,	22,	41,	-1,	63,	29,	36,	-1,	-1,	47,	-1,	5,	19,	28,	42,	-1,	-1,	-1,	6,	-1,	58,	-1,	-1,	30,	-1,	50|
-1,	29,	-1,	9,	44,	-1,	-1,	-1,	46,	-1,	24,	-1,	6,	52,	7,	-1,	34,	-1,	-1,	58,	26,	18,	-1,	15,	4,	-1,	-1,	-1,	3,	41,	-1,	-1,	56,	11,	-1,	64,	20,	-1,	16,	-1,	28,	-1,	12,	55,	43,	45,	-1,	-1,	10,	36,	-1,	-1,	-1,	-1,	47,	-1,	-1,	-1,	-1,	14,	-1,	2,	39,	-1|
-1,	-1,	-1,	11,	-1,	-1,	-1,	36,	43,	23,	-1,	-1,	-1,	10,	50,	-1,	-1,	53,	-1,	46,	-1,	45,	-1,	29,	-1,	-1,	42,	60,	8,	37,	-1,	-1,	6,	-1,	51,	3,	47,	1,	63,	-1,	30,	38,	58,	-1,	-1,	-1,	20,	-1,	55,	-1,	22,	-1,	24,	39,	-1,	-1,	34,	49,	16,	57,	44,	4,	41,	-1|
-1,	51,	-1,	47,	-1,	13,	4,	42,	-1,	26,	-1,	18,	-1,	-1,	10,	-1,	-1,	37,	44,	53,	-1,	-1,	15,	64,	-1,	-1,	11,	-1,	-1,	58,	55,	20,	-1,	-1,	-1,	-1,	46,	-1,	32,	-1,	-1,	27,	-1,	57,	-1,	-1,	-1,	43,	-1,	40,	41,	-1,	22,	48,	62,	31,	-1,	38,	36,	-1,	-1,	7,	24,	21|
-1,	-1,	-1,	15,	-1,	20,	-1,	-1,	4,	44,	6,	34,	-1,	21,	60,	38,	61,	-1,	-1,	-1,	-1,	-1,	52,	26,	-1,	-1,	-1,	-1,	-1,	53,	28,	42,	-1,	43,	-1,	62,	-1,	-1,	-1,	-1,	39,	-1,	36,	-1,	7,	-1,	5,	63,	-1,	-1,	64,	-1,	-1,	55,	18,	19,	46,	41,	1,	9,	-1,	13,	-1,	-1|
-1,	-1,	37,	-1,	-1,	-1,	61,	32,	39,	62,	-1,	3,	31,	56,	-1,	-1,	-1,	27,	49,	-1,	28,	2,	46,	-1,	-1,	-1,	6,	-1,	24,	23,	-1,	-1,	-1,	-1,	26,	63,	-1,	-1,	7,	58,	55,	30,	50,	-1,	64,	-1,	-1,	-1,	-1,	52,	-1,	-1,	53,	44,	35,	36,	12,	16,	-1,	42,	-1,	-1,	-1,	22|
-1,	-1,	48,	44,	-1,	34,	50,	-1,	16,	-1,	20,	-1,	-1,	-1,	-1,	40,	-1,	-1,	56,	-1,	23,	24,	-1,	-1,	21,	-1,	-1,	64,	-1,	-1,	52,	-1,	31,	37,	36,	-1,	18,	-1,	-1,	61,	2,	-1,	-1,	-1,	53,	-1,	28,	11,	-1,	-1,	-1,	45,	9,	17,	-1,	47,	-1,	54,	43,	-1,	-1,	29,	15,	-1|
-1,	30,	-1,	-1,	41,	28,	1,	-1,	-1,	33,	-1,	55,	29,	-1,	-1,	46,	-1,	-1,	32,	22,	-1,	3,	-1,	4,	40,	49,	12,	-1,	57,	-1,	-1,	-1,	-1,	-1,	-1,	42,	56,	9,	27,	25,	58,	20,	21,	8,	6,	-1,	-1,	54,	-1,	7,	59,	26,	-1,	14,	-1,	-1,	62,	10,	45,	48,	37,	-1,	-1,	-1|
-1,	24,	17,	62,	-1,	8,	-1,	-1,	-1,	-1,	-1,	-1,	-1,	-1,	58,	-1,	16,	-1,	-1,	29,	20,	-1,	-1,	-1,	-1,	-1,	25,	19,	-1,	31,	41,	-1,	-1,	-1,	47,	14,	2,	11,	-1,	6,	-1,	-1,	60,	-1,	-1,	-1,	48,	46,	28,	-1,	32,	39,	49,	23,	-1,	21,	-1,	55,	-1,	-1,	3,	-1,	52,	-1|
-1,	-1,	-1,	-1,	9,	-1,	-1,	-1,	64,	-1,	-1,	-1,	23,	48,	36,	-1,	39,	12,	41,	45,	34,	31,	-1,	-1,	7,	-1,	10,	59,	15,	62,	-1,	-1,	55,	-1,	-1,	-1,	22,	-1,	33,	-1,	38,	25,	-1,	18,	-1,	52,	-1,	-1,	-1,	-1,	46,	-1,	-1,	-1,	-1,	-1,	-1,	-1,	61,	44,	28,	17,	-1,	-1|
23,	-1,	-1,	40,	18,	57,	56,	58,	41,	-1,	-1,	22,	28,	24,	-1,	-1,	-1,	21,	-1,	-1,	54,	-1,	-1,	8,	30,	36,	-1,	-1,	45,	-1,	-1,	-1,	51,	20,	-1,	-1,	4,	13,	34,	48,	15,	10,	16,	-1,	-1,	-1,	-1,	-1,	12,	38,	-1,	3,	-1,	60,	1,	61,	-1,	-1,	-1,	-1,	53,	32,	6,	19|
25,	-1,	11,	-1,	-1,	53,	41,	14,	22,	-1,	1,	9,	35,	6,	20,	17,	-1,	34,	-1,	-1,	-1,	-1,	62,	51,	47,	12,	27,	-1,	-1,	-1,	-1,	28,	-1,	21,	-1,	4,	-1,	-1,	29,	-1,	-1,	-1,	-1,	59,	-1,	40,	32,	-1,	3,	-1,	54,	-1,	56,	-1,	-1,	46,	55,	15,	-1,	10,	58,	-1,	63,	24|
5,	17,	-1,	59,	62,	54,	31,	4,	14,	52,	41,	-1,	3,	58,	16,	-1,	-1,	46,	25,	-1,	-1,	-1,	64,	35,	-1,	11,	-1,	32,	33,	-1,	-1,	23,	40,	-1,	8,	45,	-1,	-1,	48,	15,	7,	34,	51,	-1,	2,	61,	-1,	37,	-1,	-1,	-1,	60,	-1,	-1,	-1,	30,	1,	39,	21,	-1,	18,	-1,	47,	56|
-1,	63,	51,	-1,	-1,	-1,	20,	19,	10,	-1,	-1,	24,	33,	-1,	-1,	60,	22,	59,	43,	-1,	5,	-1,	-1,	-1,	14,	26,	21,	25,	38,	50,	18,	-1,	44,	-1,	6,	35,	-1,	-1,	-1,	53,	42,	54,	13,	56,	46,	4,	-1,	8,	36,	-1,	-1,	32,	-1,	-1,	9,	41,	61,	11,	-1,	29,	-1,	-1,	16,	28|
-1,	-1,	10,	22,	43,	-1,	40,	-1,	-1,	-1,	-1,	-1,	-1,	-1,	44,	-1,	29,	-1,	-1,	-1,	13,	53,	32,	-1,	54,	-1,	-1,	-1,	-1,	-1,	-1,	-1,	-1,	5,	-1,	-1,	-1,	-1,	19,	1,	-1,	41,	39,	58,	-1,	36,	-1,	38,	-1,	-1,	37,	-1,	-1,	-1,	2,	55,	4,	-1,	-1,	-1,	42,	60,	49,	45|
33,	58,	-1,	-1,	30,	15,	36,	-1,	5,	45,	-1,	8,	25,	32,	-1,	2,	41,	18,	-1,	56,	-1,	-1,	3,	37,	-1,	-1,	-1,	42,	-1,	43,	63,	22,	23,	-1,	57,	-1,	24,	-1,	11,	7,	60,	9,	-1,	21,	-1,	62,	-1,	-1,	-1,	-1,	53,	-1,	-1,	-1,	49,	6,	31,	-1,	-1,	-1,	59,	-1,	-1,	-1|
7,	34,	-1,	-1,	32,	16,	44,	-1,	-1,	-1,	57,	61,	-1,	40,	-1,	-1,	2,	1,	-1,	-1,	-1,	-1,	-1,	-1,	45,	41,	-1,	-1,	-1,	-1,	-1,	59,	27,	-1,	55,	60,	-1,	22,	13,	-1,	33,	15,	28,	5,	-1,	-1,	-1,	50,	-1,	-1,	-1,	-1,	17,	35,	-1,	-1,	54,	26,	62,	-1,	-1,	-1,	-1,	64|
-1,	45,	-1,	-1,	-1,	-1,	55,	-1,	-1,	42,	36,	19,	-1,	39,	28,	-1,	44,	-1,	52,	-1,	33,	60,	48,	20,	-1,	-1,	2,	-1,	53,	-1,	49,	1,	25,	-1,	43,	-1,	-1,	-1,	14,	-1,	-1,	31,	-1,	22,	-1,	-1,	-1,	6,	-1,	12,	10,	4,	5,	-1,	40,	-1,	41,	17,	-1,	38,	8,	46,	-1,	51|
-1,	-1,	8,	12,	24,	42,	-1,	-1,	-1,	-1,	-1,	63,	56,	38,	-1,	55,	57,	6,	15,	17,	4,	-1,	-1,	-1,	-1,	5,	-1,	-1,	16,	-1,	10,	60,	47,	33,	-1,	-1,	-1,	58,	-1,	-1,	44,	-1,	27,	-1,	45,	48,	-1,	-1,	-1,	23,	7,	43,	61,	-1,	39,	-1,	22,	-1,	3,	-1,	2,	14,	20,	37|
59,	-1,	-1,	19,	53,	62,	-1,	-1,	60,	61,	-1,	-1,	13,	-1,	-1,	16,	-1,	29,	-1,	-1,	36,	-1,	22,	48,	34,	64,	37,	-1,	-1,	45,	8,	-1,	32,	24,	28,	1,	42,	-1,	2,	-1,	10,	-1,	-1,	-1,	-1,	-1,	-1,	51,	14,	17,	-1,	30,	4,	56,	-1,	-1,	-1,	-1,	12,	31,	-1,	9,	35,	63|
13,	48,	-1,	-1,	-1,	24,	14,	-1,	-1,	-1,	-1,	-1,	7,	-1,	31,	9,	50,	5,	45,	26,	-1,	-1,	38,	28,	56,	30,	53,	62,	-1,	36,	47,	-1,	-1,	-1,	20,	-1,	-1,	-1,	39,	4,	-1,	21,	41,	11,	-1,	-1,	61,	-1,	46,	-1,	-1,	59,	43,	-1,	-1,	-1,	-1,	3,	-1,	-1,	49,	-1,	-1,	-1|
11,	-1,	20,	-1,	-1,	37,	-1,	46,	-1,	-1,	-1,	36,	-1,	3,	-1,	-1,	-1,	-1,	-1,	41,	-1,	33,	-1,	61,	-1,	-1,	-1,	29,	-1,	51,	-1,	21,	-1,	13,	34,	-1,	-1,	-1,	44,	63,	-1,	-1,	-1,	-1,	55,	6,	-1,	-1,	53,	-1,	40,	19,	-1,	-1,	50,	-1,	2,	23,	-1,	7,	22,	-1,	58,	-1|
35,	-1,	-1,	1,	-1,	-1,	-1,	45,	6,	-1,	26,	-1,	-1,	14,	51,	52,	4,	-1,	59,	-1,	7,	-1,	-1,	-1,	-1,	-1,	-1,	-1,	-1,	-1,	-1,	63,	46,	-1,	62,	48,	3,	16,	-1,	-1,	56,	33,	9,	-1,	5,	-1,	-1,	19,	61,	55,	-1,	11,	-1,	-1,	37,	-1,	8,	53,	29,	-1,	-1,	-1,	50,	57|
17,	27,	12,	-1,	-1,	22,	39,	-1,	-1,	4,	59,	-1,	-1,	62,	57,	29,	-1,	-1,	8,	14,	18,	-1,	-1,	-1,	43,	-1,	1,	-1,	-1,	61,	-1,	-1,	-1,	-1,	41,	-1,	-1,	15,	30,	54,	-1,	-1,	53,	24,	38,	63,	-1,	28,	35,	44,	47,	-1,	-1,	-1,	-1,	9,	-1,	-1,	-1,	-1,	-1,	10,	-1,	46|
-1,	-1,	55,	8,	-1,	50,	-1,	-1,	-1,	-1,	-1,	1,	5,	-1,	25,	-1,	32,	-1,	-1,	16,	-1,	-1,	40,	-1,	-1,	-1,	-1,	54,	60,	-1,	15,	-1,	22,	-1,	21,	61,	-1,	-1,	6,	57,	-1,	-1,	-1,	39,	-1,	30,	-1,	-1,	41,	-1,	12,	52,	-1,	-1,	29,	-1,	-1,	-1,	14,	47,	-1,	-1,	-1,	-1|
-1,	9,	-1,	41,	-1,	-1,	63,	51,	-1,	55,	-1,	54,	-1,	33,	-1,	8,	-1,	-1,	21,	37,	47,	25,	-1,	-1,	42,	39,	-1,	-1,	50,	-1,	27,	-1,	49,	35,	-1,	-1,	52,	-1,	-1,	-1,	-1,	64,	57,	-1,	22,	-1,	-1,	-1,	-1,	28,	-1,	-1,	-1,	-1,	-1,	-1,	15,	61,	13,	17,	30,	11,	5,	-1|
61,	-1,	-1,	30,	52,	2,	-1,	-1,	63,	-1,	-1,	-1,	-1,	-1,	-1,	-1,	55,	35,	-1,	-1,	11,	17,	44,	31,	3,	46,	13,	-1,	-1,	57,	-1,	-1,	-1,	-1,	37,	-1,	26,	38,	-1,	-1,	-1,	8,	32,	-1,	-1,	-1,	59,	-1,	54,	-1,	-1,	64,	-1,	-1,	-1,	-1,	-1,	-1,	39,	21,	4,	-1,	-1,	43|
-1,	41,	44,	60,	-1,	12,	7,	-1,	52,	49,	34,	58,	47,	28,	-1,	61,	53,	23,	-1,	-1,	30,	-1,	21,	25,	-1,	-1,	-1,	-1,	17,	-1,	64,	-1,	-1,	-1,	-1,	55,	6,	-1,	-1,	-1,	26,	-1,	31,	-1,	27,	-1,	8,	-1,	-1,	-1,	51,	-1,	19,	-1,	-1,	-1,	59,	-1,	54,	-1,	-1,	39,	40,	-1|
46,	-1,	53,	64,	-1,	-1,	-1,	30,	-1,	29,	-1,	-1,	16,	-1,	62,	24,	-1,	56,	-1,	8,	-1,	-1,	58,	5,	23,	-1,	-1,	-1,	42,	9,	-1,	19,	28,	-1,	59,	-1,	37,	26,	-1,	-1,	-1,	-1,	14,	-1,	51,	-1,	-1,	40,	7,	-1,	-1,	48,	-1,	-1,	31,	-1,	-1,	-1,	50,	-1,	-1,	45,	-1,	-1|
47,	59,	-1,	-1,	-1,	-1,	34,	-1,	-1,	-1,	30,	-1,	-1,	4,	55,	-1,	-1,	-1,	38,	-1,	16,	-1,	57,	50,	-1,	7,	-1,	-1,	-1,	14,	48,	43,	-1,	-1,	33,	2,	27,	60,	-1,	42,	-1,	12,	25,	52,	-1,	-1,	58,	-1,	18,	-1,	45,	35,	-1,	53,	-1,	-1,	32,	5,	26,	-1,	-1,	20,	-1,	-1|
29,	39,	1,	17,	26,	-1,	-1,	-1,	-1,	11,	7,	14,	-1,	60,	45,	13,	-1,	20,	64,	15,	-1,	46,	-1,	-1,	27,	-1,	-1,	-1,	-1,	-1,	-1,	-1,	50,	25,	-1,	-1,	10,	47,	-1,	34,	-1,	-1,	-1,	-1,	-1,	35,	-1,	3,	62,	9,	-1,	22,	55,	-1,	-1,	-1,	44,	-1,	56,	-1,	-1,	48,	-1,	-1|
9,	25,	-1,	32,	57,	43,	52,	-1,	-1,	54,	21,	56,	-1,	42,	-1,	10,	-1,	-1,	55,	-1,	-1,	37,	17,	59,	-1,	-1,	-1,	26,	35,	63,	16,	12,	58,	48,	24,	15,	-1,	-1,	-1,	36,	6,	11,	-1,	-1,	-1,	-1,	-1,	53,	4,	14,	-1,	50,	3,	-1,	-1,	-1,	7,	1,	27,	-1,	-1,	-1,	-1,	2|
-1,	-1,	4,	54,	38,	27,	51,	-1,	26,	-1,	-1,	53,	50,	59,	5,	36,	-1,	-1,	48,	-1,	-1,	-1,	28,	42,	-1,	-1,	-1,	20,	39,	47,	46,	8,	43,	-1,	64,	-1,	-1,	57,	52,	-1,	18,	19,	1,	-1,	-1,	-1,	-1,	-1,	15,	-1,	-1,	-1,	40,	-1,	25,	-1,	-1,	-1,	30,	-1,	14,	37,	10,	-1|
-1,	50,	21,	35,	16,	-1,	24,	20,	1,	-1,	-1,	17,	-1,	64,	27,	-1,	-1,	-1,	31,	32,	-1,	26,	14,	-1,	-1,	6,	18,	-1,	41,	15,	59,	-1,	19,	53,	38,	-1,	-1,	-1,	-1,	-1,	29,	-1,	-1,	-1,	30,	5,	37,	9,	-1,	47,	11,	-1,	-1,	-1,	-1,	-1,	60,	-1,	-1,	58,	-1,	28,	-1,	-1|
-1,	-1,	-1,	48,	-1,	23,	-1,	-1,	8,	-1,	-1,	-1,	32,	31,	33,	-1,	-1,	7,	34,	4,	29,	-1,	18,	-1,	36,	-1,	-1,	21,	40,	5,	-1,	-1,	9,	-1,	-1,	-1,	-1,	62,	1,	35,	49,	43,	45,	-1,	-1,	-1,	-1,	64,	-1,	-1,	20,	58,	26,	-1,	17,	-1,	-1,	-1,	51,	-1,	-1,	-1,	38,	-1|
-1,	47,	-1,	-1,	39,	58,	-1,	9,	49,	-1,	-1,	41,	-1,	-1,	-1,	-1,	33,	2,	-1,	64,	-1,	-1,	56,	-1,	-1,	-1,	24,	45,	-1,	18,	54,	-1,	-1,	-1,	4,	6,	-1,	27,	43,	62,	-1,	-1,	48,	-1,	-1,	59,	53,	13,	44,	15,	-1,	29,	-1,	-1,	-1,	40,	11,	-1,	55,	63,	46,	-1,	42,	61|
-1,	-1,	46,	37,	-1,	41,	-1,	11,	35,	1,	52,	28,	22,	16,	-1,	-1,	58,	4,	18,	-1,	-1,	23,	29,	14,	-1,	55,	7,	-1,	59,	-1,	-1,	6,	57,	-1,	63,	19,	45,	-1,	3,	-1,	-1,	-1,	-1,	64,	33,	-1,	9,	36,	-1,	62,	43,	20,	-1,	-1,	-1,	8,	26,	48,	-1,	56,	10,	51,	53,	17|
18,	26,	-1,	13,	14,	1,	42,	-1,	-1,	-1,	-1,	-1,	57,	7,	-1,	25,	-1,	41,	46,	44,	12,	21,	-1,	-1,	20,	8,	-1,	-1,	-1,	10,	-1,	62,	11,	32,	-1,	31,	-1,	-1,	-1,	-1,	-1,	52,	55,	-1,	58,	-1,	-1,	61,	-1,	-1,	-1,	-1,	35,	-1,	-1,	2,	3,	-1,	28,	-1,	50,	-1,	27,	-1|
-1,	33,	61,	-1,	-1,	49,	-1,	21,	2,	-1,	-1,	-1,	-1,	63,	64,	-1,	-1,	-1,	24,	3,	35,	38,	36,	-1,	-1,	-1,	-1,	-1,	-1,	42,	-1,	40,	26,	-1,	-1,	53,	14,	48,	-1,	-1,	57,	39,	-1,	-1,	37,	8,	-1,	20,	-1,	-1,	5,	41,	12,	-1,	46,	1,	-1,	-1,	47,	-1,	-1,	-1,	-1,	-1|
8,	4,	-1,	43,	50,	-1,	-1,	56,	-1,	58,	53,	-1,	55,	-1,	-1,	33,	-1,	-1,	-1,	-1,	-1,	15,	-1,	-1,	-1,	19,	46,	-1,	48,	3,	12,	2,	-1,	-1,	-1,	-1,	-1,	29,	28,	-1,	-1,	6,	-1,	62,	-1,	-1,	23,	-1,	32,	-1,	36,	14,	-1,	18,	11,	-1,	64,	21,	49,	5,	-1,	38,	13,	31|
24,	20,	5,	-1,	48,	-1,	12,	-1,	-1,	-1,	42,	13,	61,	46,	-1,	-1,	-1,	28,	-1,	-1,	-1,	-1,	-1,	-1,	38,	-1,	63,	15,	-1,	32,	26,	-1,	2,	58,	-1,	18,	9,	49,	-1,	23,	-1,	-1,	-1,	51,	-1,	-1,	-1,	17,	22,	27,	-1,	-1,	21,	-1,	10,	3,	-1,	60,	8,	1,	-1,	33,	54,	-1|
62,	-1,	-1,	-1,	55,	44,	22,	-1,	-1,	14,	-1,	12,	-1,	30,	24,	-1,	-1,	-1,	20,	-1,	51,	-1,	60,	-1,	-1,	-1,	23,	-1,	49,	35,	-1,	58,	-1,	-1,	-1,	47,	-1,	-1,	37,	50,	-1,	5,	-1,	19,	31,	-1,	-1,	2,	-1,	59,	-1,	-1,	48,	42,	45,	-1,	57,	-1,	9,	40,	43,	25,	-1,	36|
53,	-1,	19,	-1,	23,	-1,	3,	29,	62,	10,	4,	5,	38,	43,	48,	45,	-1,	26,	37,	-1,	-1,	-1,	8,	22,	-1,	-1,	-1,	33,	-1,	16,	51,	13,	-1,	-1,	-1,	-1,	41,	-1,	-1,	-1,	-1,	-1,	-1,	-1,	-1,	18,	-1,	32,	9,	56,	24,	25,	57,	47,	52,	28,	-1,	2,	20,	-1,	-1,	58,	-1,	6|];
