sudoku-ls/benchmarks_LEQ/INST_64x64/50/inst64x64_50_80.txt
8
1
34	-1	-1	-1	-1	-1	-1	2	3	39	33	23	42	51	46	-1	15	8	16	43	38	-1	35	53	59	9	48	-1	54	-1	-1	-1	-1	-1	27	-1	-1	52	-1	64	-1	-1	5	63	-1	44	22	31	49	-1	62	-1	-1	-1	-1	7	30	-1	-1	-1	17	-1	-1	-1
-1	15	29	26	22	-1	9	43	21	38	-1	-1	63	61	-1	27	-1	48	-1	30	-1	64	45	56	-1	-1	60	-1	-1	33	-1	-1	16	47	32	28	39	-1	-1	-1	-1	18	-1	49	-1	13	7	57	-1	35	3	1	-1	-1	-1	-1	-1	24	-1	59	6	36	-1	53
-1	-1	63	45	40	46	-1	-1	-1	-1	60	52	-1	41	9	1	42	55	-1	-1	57	-1	33	-1	-1	-1	-1	43	-1	-1	-1	7	59	-1	-1	-1	48	-1	51	-1	-1	-1	30	4	20	-1	11	58	47	32	-1	17	39	-1	-1	-1	18	62	31	23	35	3	2	-1
-1	-1	-1	31	-1	56	-1	24	25	19	-1	-1	64	50	18	-1	59	-1	54	-1	-1	-1	-1	49	32	28	14	-1	-1	-1	62	-1	-1	-1	-1	-1	-1	63	-1	46	53	-1	10	-1	-1	-1	45	-1	-1	30	-1	-1	8	-1	55	22	13	51	38	33	-1	-1	-1	7
48	-1	-1	-1	-1	55	64	-1	-1	-1	-1	29	44	-1	-1	-1	-1	9	39	25	-1	1	-1	24	-1	3	49	57	31	52	-1	-1	-1	-1	-1	36	-1	-1	38	2	37	35	-1	-1	-1	21	62	12	26	-1	14	-1	18	59	41	4	-1	8	-1	-1	54	-1	60	-1
-1	19	30	-1	-1	14	-1	-1	-1	31	-1	7	24	54	-1	-1	-1	61	-1	20	-1	-1	37	-1	-1	-1	41	17	18	-1	-1	45	4	-1	60	9	-1	-1	-1	5	8	59	6	38	-1	26	-1	-1	-1	29	-1	-1	-1	33	-1	11	-1	-1	-1	12	64	49	1	-1
-1	5	47	57	-1	32	62	-1	-1	-1	8	4	36	49	12	58	7	14	-1	-1	19	22	63	-1	-1	15	-1	-1	1	-1	-1	26	-1	-1	54	-1	13	35	-1	-1	51	24	-1	-1	-1	-1	-1	55	16	43	28	-1	23	-1	53	48	-1	50	-1	27	25	40	9	11
49	12	-1	-1	-1	-1	-1	8	-1	57	-1	15	-1	53	6	43	-1	-1	40	-1	-1	-1	26	21	-1	20	61	-1	58	-1	-1	35	-1	30	11	10	62	-1	-1	-1	-1	28	-1	36	-1	29	56	-1	-1	37	38	-1	-1	-1	44	50	-1	-1	-1	46	52	16	22	47
45	37	-1	-1	49	-1	19	-1	27	8	-1	-1	9	5	-1	-1	6	-1	11	59	15	36	31	41	53	54	-1	14	-1	-1	39	-1	48	-1	-1	7	-1	-1	-1	43	46	29	-1	-1	63	17	10	-1	24	26	50	-1	64	-1	-1	32	-1	58	60	-1	33	-1	-1	-1
4	36	3	-1	-1	7	-1	17	-1	-1	-1	26	52	44	-1	63	18	22	-1	-1	21	-1	-1	12	-1	-1	-1	-1	-1	11	-1	-1	1	60	-1	57	64	51	-1	-1	32	40	34	16	49	-1	39	-1	27	46	-1	-1	31	-1	28	-1	-1	-1	-1	6	-1	-1	-1	10
-1	11	14	55	10	51	15	-1	-1	-1	-1	43	46	25	-1	6	-1	-1	35	-1	-1	29	42	34	57	38	-1	-1	-1	26	-1	27	-1	45	-1	-1	8	-1	22	-1	-1	-1	-1	53	52	28	-1	4	21	3	-1	-1	47	-1	12	60	48	-1	-1	32	20	-1	23	-1
42	-1	26	50	2	-1	33	-1	-1	60	16	47	62	-1	34	11	-1	-1	-1	19	-1	-1	-1	38	-1	-1	-1	7	-1	1	-1	-1	21	18	39	-1	59	46	61	-1	36	57	-1	-1	-1	-1	-1	-1	5	-1	-1	-1	-1	-1	48	45	51	14	-1	35	-1	52	-1	3
57	62	-1	53	64	47	8	27	12	32	-1	-1	39	-1	40	-1	-1	-1	23	-1	58	48	50	-1	60	44	-1	35	10	17	22	18	-1	63	-1	-1	30	6	-1	29	20	3	-1	15	-1	51	-1	14	19	11	-1	7	16	-1	-1	-1	-1	9	-1	49	-1	31	21	13
60	21	38	-1	46	39	-1	44	42	36	64	10	-1	-1	61	-1	26	3	-1	57	-1	7	-1	17	58	45	5	-1	19	20	33	31	24	-1	13	-1	-1	-1	-1	52	25	-1	56	30	-1	-1	-1	62	2	-1	-1	-1	37	-1	59	-1	-1	43	15	-1	27	-1	-1	54
40	-1	-1	29	28	-1	-1	-1	-1	-1	-1	-1	-1	-1	-1	3	8	-1	2	-1	-1	13	-1	-1	-1	52	-1	-1	64	56	32	-1	14	-1	-1	5	-1	-1	4	-1	12	26	-1	-1	-1	-1	-1	23	17	-1	58	10	33	9	-1	39	38	-1	53	24	-1	55	46	-1
-1	61	-1	58	12	-1	30	59	-1	50	54	-1	-1	57	-1	-1	-1	-1	14	5	27	-1	-1	44	-1	42	-1	16	-1	21	-1	-1	15	23	17	41	-1	-1	-1	47	31	2	43	-1	-1	-1	-1	45	-1	8	56	-1	63	6	-1	13	29	-1	11	26	-1	64	-1	39
-1	-1	15	-1	-1	-1	45	62	55	64	58	-1	4	-1	-1	-1	-1	-1	-1	-1	32	-1	51	-1	-1	-1	-1	-1	21	2	20	11	39	-1	29	-1	44	-1	23	-1	61	1	-1	6	60	-1	52	-1	-1	-1	34	-1	-1	-1	-1	-1	9	40	-1	-1	-1	26	-1	35
41	55	56	6	-1	-1	60	26	-1	15	-1	33	-1	45	63	35	-1	38	5	-1	-1	-1	25	7	18	43	16	58	14	-1	-1	-1	62	-1	-1	13	17	36	-1	8	-1	-1	64	-1	24	-1	27	-1	-1	51	29	9	-1	40	54	12	-1	-1	-1	20	31	-1	-1	-1
30	-1	31	-1	-1	48	37	-1	18	53	-1	-1	-1	-1	-1	-1	-1	36	-1	10	-1	-1	-1	6	-1	-1	35	46	22	7	-1	34	5	-1	25	32	58	-1	-1	-1	-1	-1	11	-1	14	42	-1	39	-1	-1	-1	33	62	4	-1	-1	-1	64	-1	-1	61	15	-1	-1
14	-1	58	42	-1	64	49	18	-1	-1	-1	44	-1	-1	22	59	-1	-1	-1	-1	37	41	-1	3	39	53	-1	6	12	-1	36	29	30	-1	48	-1	19	4	-1	-1	50	46	-1	-1	23	-1	-1	7	45	60	17	56	-1	-1	-1	16	-1	-1	-1	13	38	24	-1	8
-1	23	-1	-1	-1	-1	43	-1	17	-1	-1	-1	-1	11	-1	19	64	50	-1	28	-1	-1	-1	33	-1	-1	-1	-1	9	48	45	47	52	-1	35	-1	60	14	57	-1	3	22	37	44	-1	49	21	-1	58	-1	-1	31	59	7	-1	26	-1	25	46	54	-1	-1	36	-1
12	8	-1	-1	-1	4	46	25	-1	16	13	38	-1	9	-1	-1	20	44	-1	35	49	-1	-1	55	33	-1	-1	31	-1	-1	-1	24	-1	-1	18	-1	-1	34	10	-1	-1	48	63	-1	-1	53	-1	-1	23	5	19	28	42	-1	-1	-1	6	56	-1	11	45	-1	51	50
-1	29	-1	9	44	-1	-1	35	46	37	24	31	-1	-1	7	51	-1	62	-1	58	-1	18	-1	-1	4	-1	59	23	-1	41	61	-1	56	-1	-1	64	-1	40	16	21	-1	-1	-1	55	43	-1	-1	33	-1	-1	-1	13	30	-1	-1	53	17	-1	-1	-1	-1	-1	39	60
19	-1	13	11	17	5	59	36	43	-1	-1	-1	14	-1	-1	-1	-1	-1	-1	-1	-1	-1	-1	-1	28	-1	-1	60	8	37	25	-1	6	7	-1	3	47	1	63	-1	-1	-1	-1	31	15	54	-1	26	-1	-1	-1	-1	-1	-1	21	-1	-1	49	16	-1	-1	-1	41	-1
-1	-1	45	47	-1	-1	4	42	50	26	63	-1	-1	-1	-1	-1	25	37	44	-1	6	35	-1	-1	16	61	11	-1	56	-1	55	-1	17	-1	49	-1	46	8	32	28	59	-1	23	-1	29	-1	19	43	-1	40	41	-1	22	-1	-1	31	5	-1	-1	-1	-1	7	-1	21
-1	-1	-1	-1	59	-1	-1	-1	-1	-1	6	-1	17	21	-1	-1	61	-1	58	-1	50	-1	52	-1	-1	-1	47	3	-1	53	-1	42	35	-1	40	62	23	-1	-1	45	-1	-1	36	14	-1	-1	-1	63	29	54	64	37	-1	-1	-1	19	46	41	-1	9	-1	13	25	33
10	54	-1	-1	21	-1	-1	-1	39	62	45	-1	31	-1	43	-1	-1	27	49	-1	-1	-1	46	9	-1	60	-1	51	24	-1	-1	-1	-1	-1	26	-1	38	-1	-1	58	55	-1	-1	13	-1	-1	4	34	-1	-1	-1	-1	-1	-1	-1	36	-1	-1	59	-1	40	47	11	-1
-1	3	48	44	-1	34	50	12	16	-1	-1	-1	19	-1	-1	40	-1	-1	56	33	23	24	-1	-1	21	22	39	64	4	46	52	32	-1	-1	36	-1	-1	5	59	-1	-1	62	42	-1	-1	1	-1	11	-1	-1	27	-1	9	17	6	-1	49	54	43	-1	-1	29	-1	14
-1	30	-1	-1	41	-1	1	-1	51	-1	-1	55	-1	-1	11	-1	-1	19	-1	22	17	-1	13	-1	40	49	12	-1	-1	34	35	-1	53	15	-1	42	56	9	-1	-1	58	20	21	-1	6	31	44	-1	-1	7	59	-1	-1	14	-1	24	62	10	45	48	37	-1	64	23
63	24	-1	-1	5	8	38	-1	53	35	-1	59	-1	37	58	54	16	-1	-1	29	20	-1	-1	-1	-1	1	25	19	44	-1	41	-1	10	-1	-1	14	2	-1	64	6	-1	61	-1	-1	56	-1	-1	-1	28	33	-1	-1	49	-1	-1	-1	-1	55	18	-1	3	34	52	-1
27	-1	43	14	9	-1	-1	53	-1	-1	-1	-1	-1	-1	36	-1	39	-1	-1	-1	34	31	5	1	-1	-1	-1	-1	-1	62	-1	54	55	3	-1	-1	22	-1	33	-1	38	-1	40	-1	47	-1	24	35	-1	-1	-1	51	-1	-1	-1	63	-1	57	-1	-1	-1	17	-1	-1
23	-1	-1	40	18	-1	-1	-1	41	47	27	22	28	-1	-1	5	-1	-1	7	-1	54	-1	11	8	-1	36	-1	63	-1	29	-1	14	-1	20	-1	-1	-1	-1	34	-1	15	-1	-1	9	-1	-1	-1	49	12	-1	42	-1	-1	60	-1	61	50	-1	35	-1	53	-1	-1	19
25	-1	-1	2	-1	-1	-1	14	-1	13	-1	-1	-1	-1	20	-1	23	-1	26	-1	-1	50	62	51	47	-1	-1	8	-1	39	-1	-1	37	21	52	-1	36	-1	-1	-1	-1	49	-1	-1	-1	40	-1	-1	3	-1	54	42	56	-1	33	46	55	-1	-1	10	58	5	-1	-1
5	17	50	59	-1	-1	31	-1	-1	-1	41	-1	3	-1	-1	53	36	-1	-1	-1	-1	55	64	-1	19	-1	-1	-1	-1	24	44	23	40	10	8	45	12	42	48	-1	-1	34	51	-1	-1	61	-1	-1	38	13	26	60	29	-1	-1	-1	1	-1	21	-1	-1	6	47	-1
-1	63	-1	49	37	3	-1	-1	-1	-1	31	-1	33	-1	30	60	22	59	43	7	-1	39	-1	40	14	26	-1	25	38	50	-1	15	-1	62	6	35	34	-1	17	-1	-1	-1	-1	-1	46	-1	-1	8	36	1	52	-1	-1	45	-1	-1	61	11	-1	29	12	23	16	-1
-1	-1	10	22	-1	9	40	-1	15	46	47	-1	-1	-1	44	64	29	-1	-1	-1	13	53	32	11	54	-1	52	48	20	30	-1	51	18	5	61	-1	-1	-1	19	-1	24	-1	-1	58	-1	-1	12	38	-1	50	-1	-1	14	34	-1	55	-1	-1	33	-1	42	60	-1	-1
33	58	-1	-1	-1	-1	-1	38	5	-1	12	8	25	32	-1	-1	-1	-1	-1	56	14	-1	-1	-1	17	29	-1	42	34	43	63	22	23	-1	57	-1	24	-1	-1	-1	60	-1	-1	-1	1	-1	26	-1	64	20	-1	-1	44	19	49	6	-1	13	40	-1	59	27	48	52
7	-1	-1	-1	32	16	-1	-1	29	21	-1	61	43	-1	23	-1	-1	-1	10	-1	-1	63	-1	-1	-1	-1	4	-1	46	-1	-1	59	-1	38	55	60	-1	22	-1	20	-1	-1	28	5	-1	11	-1	50	25	31	-1	47	-1	35	-1	-1	-1	26	-1	30	-1	-1	-1	-1
21	-1	-1	-1	-1	29	55	-1	-1	42	-1	19	-1	-1	-1	50	44	16	-1	-1	33	60	-1	20	9	58	-1	-1	-1	-1	-1	1	25	26	43	59	-1	-1	14	3	-1	31	-1	22	-1	-1	35	-1	63	12	10	-1	5	62	40	-1	41	-1	-1	-1	8	-1	34	-1
-1	-1	8	12	24	42	28	1	34	51	18	63	-1	-1	54	-1	-1	-1	15	17	-1	30	-1	-1	31	-1	-1	-1	-1	64	-1	-1	-1	-1	9	46	-1	-1	41	32	44	-1	27	-1	45	48	29	-1	-1	-1	7	43	-1	-1	-1	-1	22	-1	-1	36	2	-1	-1	-1
-1	-1	-1	-1	53	-1	-1	33	60	61	-1	-1	13	15	-1	16	46	29	-1	-1	-1	-1	-1	-1	34	-1	-1	38	-1	45	-1	-1	-1	24	28	1	-1	-1	2	-1	10	58	-1	-1	44	-1	49	-1	14	17	-1	-1	4	56	-1	27	-1	20	-1	-1	-1	-1	35	-1
-1	-1	-1	-1	15	24	14	-1	37	-1	-1	-1	-1	-1	-1	-1	50	-1	45	26	-1	51	-1	-1	56	30	53	62	32	36	47	-1	-1	40	20	58	29	55	-1	-1	35	21	41	11	54	-1	61	-1	-1	34	-1	59	-1	-1	63	-1	52	3	-1	60	-1	-1	44	-1
-1	-1	-1	4	54	37	5	-1	47	28	38	-1	27	-1	42	-1	1	-1	-1	-1	-1	33	-1	-1	-1	-1	9	29	-1	-1	-1	-1	12	-1	-1	25	31	-1	44	-1	-1	-1	15	43	-1	-1	60	-1	-1	-1	-1	-1	32	-1	-1	-1	2	23	64	-1	22	-1	-1	-1
-1	38	32	1	34	18	-1	-1	-1	-1	-1	-1	12	14	-1	-1	-1	-1	-1	-1	-1	20	27	60	25	-1	17	-1	28	-1	-1	63	46	64	62	48	3	-1	-1	10	56	33	-1	40	5	-1	42	19	61	55	39	-1	-1	-1	37	58	-1	53	-1	41	24	54	-1	-1
17	-1	-1	-1	3	22	39	49	45	4	59	-1	21	-1	-1	-1	-1	-1	8	-1	-1	-1	-1	-1	43	-1	-1	-1	-1	61	6	52	60	-1	-1	11	-1	15	30	-1	13	-1	-1	-1	-1	-1	31	-1	-1	-1	-1	5	51	-1	-1	-1	-1	-1	25	16	32	-1	26	-1
43	-1	-1	-1	31	50	-1	-1	44	24	46	-1	-1	-1	25	-1	-1	-1	63	-1	56	9	40	13	11	-1	-1	-1	-1	-1	-1	10	-1	-1	21	-1	53	-1	-1	57	-1	7	20	-1	-1	-1	3	27	41	-1	-1	52	38	-1	29	-1	37	-1	-1	47	51	59	-1	34
-1	-1	60	-1	-1	-1	63	51	-1	55	-1	54	58	-1	-1	-1	3	-1	-1	-1	47	25	24	-1	-1	-1	20	12	-1	-1	27	-1	-1	-1	-1	23	-1	7	56	-1	-1	-1	-1	34	22	46	-1	-1	31	-1	6	18	45	-1	-1	-1	15	-1	-1	17	-1	-1	-1	-1
61	-1	36	30	52	2	58	-1	-1	40	-1	20	-1	18	56	34	-1	-1	-1	12	-1	17	-1	31	-1	-1	13	-1	-1	57	-1	16	45	9	-1	27	-1	38	-1	-1	14	-1	-1	50	-1	47	59	-1	54	-1	-1	64	15	25	-1	-1	28	19	39	-1	4	1	-1	-1
-1	-1	-1	60	42	12	-1	10	-1	-1	34	-1	47	28	35	61	-1	23	-1	2	-1	62	-1	25	-1	57	-1	-1	-1	-1	64	37	-1	14	45	55	6	-1	-1	56	-1	-1	31	-1	27	-1	-1	48	33	-1	-1	36	19	-1	-1	-1	59	-1	54	3	16	-1	-1	-1
46	49	53	-1	-1	-1	13	30	-1	29	25	-1	16	20	62	-1	-1	-1	-1	8	-1	-1	-1	-1	23	-1	-1	61	42	-1	-1	19	-1	4	59	-1	37	26	-1	11	-1	-1	-1	47	-1	34	15	40	7	57	-1	-1	-1	-1	-1	-1	-1	18	50	22	21	45	-1	55
47	-1	-1	-1	-1	-1	-1	40	-1	-1	30	46	-1	4	55	15	54	-1	38	36	-1	-1	57	50	-1	7	-1	1	13	-1	48	43	-1	51	33	-1	-1	-1	31	42	62	-1	-1	52	10	41	-1	56	-1	21	-1	-1	-1	53	61	-1	32	-1	26	64	23	20	-1	-1
-1	-1	1	17	-1	-1	18	5	19	-1	7	14	40	-1	45	-1	49	20	-1	15	-1	-1	-1	-1	27	31	-1	2	-1	-1	58	-1	50	25	23	8	10	-1	21	34	16	63	-1	-1	-1	-1	-1	3	62	-1	30	22	-1	-1	32	38	44	-1	56	-1	-1	48	61	12
9	25	-1	-1	57	-1	-1	61	-1	-1	21	56	18	42	41	10	-1	-1	55	51	22	37	-1	59	-1	33	-1	-1	35	63	16	12	58	-1	-1	15	-1	-1	-1	36	6	-1	-1	-1	-1	-1	-1	53	-1	-1	-1	-1	3	13	34	-1	7	-1	-1	19	47	-1	-1	-1
-1	-1	4	54	38	-1	51	-1	-1	3	2	-1	-1	59	-1	-1	60	13	-1	9	-1	-1	28	42	-1	-1	45	20	-1	-1	-1	8	43	-1	64	-1	32	57	-1	-1	-1	-1	1	7	-1	-1	33	22	15	-1	23	6	-1	-1	25	56	-1	-1	-1	62	14	-1	10	-1
-1	-1	21	-1	-1	45	-1	-1	-1	-1	43	17	51	64	27	48	-1	33	-1	-1	-1	26	-1	-1	62	6	-1	52	-1	15	59	55	19	-1	38	-1	7	-1	40	-1	29	36	-1	23	-1	5	37	-1	-1	-1	-1	44	-1	46	8	49	60	34	-1	-1	-1	28	-1	-1
-1	14	-1	-1	-1	-1	2	-1	-1	-1	44	-1	-1	31	33	-1	63	-1	-1	4	-1	47	18	-1	-1	-1	3	-1	-1	-1	50	25	-1	41	30	54	-1	-1	-1	35	49	-1	-1	60	61	-1	13	64	-1	-1	20	-1	-1	-1	-1	10	-1	-1	-1	53	11	42	38	15
52	47	57	-1	-1	-1	10	9	-1	-1	23	-1	-1	19	37	-1	33	-1	-1	64	-1	5	56	32	1	-1	-1	45	36	18	54	17	38	22	-1	6	51	-1	-1	-1	-1	60	48	3	28	59	-1	13	-1	-1	16	29	-1	26	30	40	-1	12	55	63	46	-1	42	-1
31	2	46	37	-1	-1	-1	11	-1	-1	-1	28	22	16	15	21	-1	4	18	-1	42	-1	29	-1	-1	-1	-1	27	-1	-1	5	-1	-1	-1	63	19	-1	-1	3	30	40	-1	49	64	-1	50	9	-1	13	62	43	20	-1	-1	38	-1	-1	48	-1	-1	-1	-1	53	-1
18	-1	59	-1	14	-1	-1	-1	36	9	-1	-1	57	-1	17	-1	48	41	46	-1	-1	21	30	-1	-1	-1	-1	53	-1	10	29	62	11	-1	5	31	40	-1	60	-1	-1	52	55	45	-1	56	38	61	-1	64	-1	23	-1	-1	-1	-1	-1	37	-1	34	-1	-1	27	-1
-1	-1	61	51	-1	49	16	-1	-1	27	50	-1	34	63	64	32	-1	-1	-1	3	35	-1	36	-1	-1	25	31	-1	30	42	9	40	-1	-1	56	-1	-1	-1	15	13	-1	-1	-1	10	37	-1	-1	-1	6	-1	-1	-1	-1	58	46	-1	-1	-1	47	18	-1	-1	-1	59
-1	4	-1	-1	50	-1	-1	-1	54	58	53	-1	55	-1	-1	33	-1	-1	-1	1	63	-1	7	57	44	19	46	-1	-1	3	-1	-1	-1	52	-1	20	35	29	-1	16	22	6	-1	-1	-1	-1	23	-1	32	-1	-1	-1	60	-1	-1	-1	64	-1	49	5	-1	-1	13	-1
-1	-1	-1	36	-1	6	12	64	-1	56	42	-1	61	46	29	44	-1	28	19	-1	-1	-1	-1	-1	-1	-1	-1	-1	37	-1	-1	-1	-1	58	7	-1	9	-1	25	-1	11	-1	-1	51	41	-1	-1	-1	-1	-1	31	55	21	-1	-1	-1	45	-1	8	1	-1	-1	54	4
-1	-1	7	-1	55	-1	-1	63	11	14	3	12	26	30	24	18	13	-1	-1	6	51	-1	-1	-1	-1	4	23	-1	49	-1	34	-1	-1	-1	-1	47	21	54	-1	-1	27	-1	29	-1	31	15	1	-1	-1	-1	33	-1	48	42	45	-1	57	-1	9	-1	-1	25	-1	-1
-1	-1	19	-1	23	-1	3	-1	-1	10	4	-1	38	43	-1	-1	31	-1	-1	-1	-1	49	8	22	-1	21	50	-1	-1	16	51	13	-1	44	-1	17	41	-1	-1	-1	63	42	7	46	12	-1	-1	32	-1	56	-1	25	57	-1	-1	28	-1	2	-1	-1	-1	58	-1	6
64 
26 59 58 10
9 12 27 22
41 55 8 43
49 30 52 45
5 10 47 63
15 7 48 8
44 21 57 53
19 14 36 49
56 33 37 42
26 53 32 42
41 11 20 53
23 43 26 38
55 61 5 9
53 50 64 57
6 48 38 42
32 43 19 47
12 59 63 56
11 10 14 63
10 61 15 38
24 47 28 11
43 32 47 19
48 11 14 16
8 38 19 59
56 57 12 43
36 60 58 5
13 39 40 1
45 2 35 14
37 38 18 11
21 64 51 56
22 62 46 46
54 2 57 16
48 43 59 34
29 10 32 27
56 19 51 7
10 39 33 13
17 14 58 48
45 42 15 12
19 31 42 23
43 23 53 45
14 52 41 57
2 21 60 52
52 44 5 50
36 5 20 57
31 60 50 36
43 42 31 20
63 35 43 8
20 19 1 42
6 59 56 4
12 32 14 13
45 34 41 12
25 2 56 59
23 14 27 50
60 36 18 39
46 28 2 43
58 26 60 34
45 4 21 27
6 55 41 19
40 38 49 12
36 13 32 22
25 61 53 51
31 59 29 11
62 61 38 59
59 54 29 62
41 26 8 54
